local_stuff/loop_inv_stuff/loop_inv_oai/repo/z3/74.out
STDOUT:
(error "line 5 column 137: unknown constant inv (Int Int Int Int Int Int) 
declared: (declare-fun inv (Int Int Int Int Int) Bool) ")
(error "line 8 column 109: unknown constant inv (Int Int Int Int Int Int) 
declared: (declare-fun inv (Int Int Int Int Int) Bool) ")
(error "line 11 column 93: unknown constant inv (Int Int Int Int Int Int) 
declared: (declare-fun inv (Int Int Int Int Int) Bool) ")
sat
(
  (define-fun inv ((x!0 Int) (x!1 Int) (x!2 Int) (x!3 Int) (x!4 Int)) Bool
    false)
)


STDERR:
